
Gurobi 11.0.3 (linux64) logging started Mon 18 Nov 2024 09:11:23 PM CST

Set parameter LogFile to value "/home/dlcole3/graph_abstraction/hierarchical_graphs/git_storage/CS1/HP_low_reserves/gurobi_logs/serial/logfile_ST11_7.log"

Gurobi 11.0.3 (linux64) logging started Mon 18 Nov 2024 09:25:27 PM CST

Set parameter LogFile to value "/home/dlcole3/graph_abstraction/hierarchical_graphs/git_storage/CS1/HP_low_reserves/gurobi_logs/serial/logfile_ST11_7.log"
Gurobi Optimizer version 11.0.3 build v11.0.3rc0 (linux64 - "Ubuntu 18.04.3 LTS")

CPU model: Intel(R) Xeon(R) CPU E5-2698 v4 @ 2.20GHz, instruction set [SSE2|AVX|AVX2]
Thread count: 40 physical cores, 80 logical processors, using up to 20 threads

Optimize a model with 29168 rows, 50688 columns and 136175 nonzeros
Model fingerprint: 0x8ec94602
Variable types: 46944 continuous, 3744 integer (3744 binary)
Coefficient statistics:
  Matrix range     [6e-01, 2e+04]
  Objective range  [2e+00, 2e+04]
  Bounds range     [5e-02, 2e+05]
  RHS range        [4e-15, 7e+03]
Presolve removed 14297 rows and 38605 columns
Presolve time: 0.33s
Presolved: 14871 rows, 12083 columns, 62773 nonzeros
Variable types: 9217 continuous, 2866 integer (2866 binary)
Found heuristic solution: objective 2631148.5503

Root relaxation: objective 1.576427e+05, 8923 iterations, 0.56 seconds (0.49 work units)

    Nodes    |    Current Node    |     Objective Bounds      |     Work
 Expl Unexpl |  Obj  Depth IntInf | Incumbent    BestBd   Gap | It/Node Time

     0     0 157642.725    0   41 2631148.55 157642.725  94.0%     -    1s
H    0     0                    424250.49311 157642.725  62.8%     -    1s
     0     0 157642.725    0   41 424250.493 157642.725  62.8%     -    1s
     0     2 157642.725    0   41 424250.493 157642.725  62.8%     -    2s
H   32    52                    233291.18572 158095.342  32.2%   168    2s
H   35    52                    214144.55865 158095.342  26.2%   160    2s
H   36    52                    197182.25812 158095.342  19.8%   159    2s
H   41    52                    160952.09571 158095.342  1.77%   153    2s
H  348   184                    160943.66667 158095.342  1.77%  43.9    3s
H  350   184                    160842.72765 158095.342  1.71%  43.7    3s
*  384   207              27    160841.16911 158095.342  1.71%  41.7    3s
H  470   264                    159709.34821 158095.342  1.01%  37.8    4s
H  705   351                    159542.72985 158214.907  0.83%  33.9    4s
H  706   351                    159214.37444 158214.907  0.63%  33.9    4s
H  874   369                    159180.08560 158269.891  0.57%  31.3    4s
   979   422 158596.145   22   25 159180.086 158269.891  0.57%  29.8    5s
H 1070   444                    159168.07907 158269.891  0.56%  29.2    5s
H 1212   462                    159059.36449 158350.498  0.45%  28.0    5s
H 1267   470                    158974.08892 158350.498  0.39%  27.7    8s
H 1268   470                    158966.76079 158350.498  0.39%  27.6    8s

Explored 2320 nodes (60673 simplex iterations) in 9.33 seconds (8.24 work units)
Thread count was 20 (of 80 available processors)

Solution count 10: 158967 158967 158974 ... 160841

Optimal solution found (tolerance 3.00e-03)
Best objective 1.589667607925e+05, best bound 1.585474146012e+05, gap 0.2638%

User-callback calls 7068, time in user-callback 0.00 sec
